problems/csplib-prob013/ProgressivePartyProblem-models/noch/O2/lingeling/model_2_1-Ian06-solution000001.solution
language Essence 1.3

letting hosts be {4, 5, 7, 8, 10}
letting sched be
        {function(1 --> 4, 2 --> 7, 3 --> 10, 4 --> 4, 5 --> 5, 6 --> 8, 7 --> 7, 8 --> 8, 9 --> 5, 10 --> 10),
         function(1 --> 5, 2 --> 4, 3 --> 8, 4 --> 4, 5 --> 5, 6 --> 4, 7 --> 7, 8 --> 8, 9 --> 4, 10 --> 10),
         function(1 --> 7, 2 --> 10, 3 --> 4, 4 --> 4, 5 --> 5, 6 --> 5, 7 --> 7, 8 --> 8, 9 --> 8, 10 --> 10),
         function(1 --> 8, 2 --> 8, 3 --> 7, 4 --> 4, 5 --> 5, 6 --> 10, 7 --> 7, 8 --> 8, 9 --> 7, 10 --> 10),
         function(1 --> 10, 2 --> 5, 3 --> 5, 4 --> 4, 5 --> 5, 6 --> 7, 7 --> 7, 8 --> 8, 9 --> 10, 10 --> 10)}
